n = 20
Q1 = [0 0 0 23 0 0 14 27 0 0 10 30 0 0 6 0 0 0 50 0; 0 0 45 0 0 0 0 0 0 0 29 27 22 35 29 0 14 10 8 0; 0 0 0 0 0 41 0 0 0 31 0 0 0 0 36 0 27 0 8 48; 0 0 0 0 0 22 0 24 34 0 48 0 0 0 0 0 6 0 0 34; 0 0 0 0 0 0 46 0 16 0 36 0 40 40 44 46 0 13 0 11; 0 0 0 0 0 0 0 20 9 0 39 11 0 0 0 29 0 0 50 0; 0 0 0 0 0 0 0 44 0 17 0 0 0 0 0 0 40 0 0 18; 0 0 0 0 0 0 0 0 0 45 0 42 14 6 0 0 0 0 0 7; 0 0 0 0 0 0 0 0 0 13 8 21 23 0 0 41 0 0 23 47; 0 0 0 0 0 0 0 0 0 0 38 32 0 25 0 0 19 0 0 49; 0 0 0 0 0 0 0 0 0 0 0 27 29 0 0 9 0 0 0 0; 0 0 0 0 0 0 0 0 0 0 0 0 12 49 0 0 0 23 39 38; 0 0 0 0 0 0 0 0 0 0 0 0 0 8 23 41 28 0 0 0; 0 0 0 0 0 0 0 0 0 0 0 0 0 0 34 47 0 0 15 49; 0 0 0 0 0 0 0 0 0 0 0 0 0 0 0 0 0 19 5 0; 0 0 0 0 0 0 0 0 0 0 0 0 0 0 0 0 0 41 0 0; 0 0 0 0 0 0 0 0 0 0 0 0 0 0 0 0 0 22 10 0; 0 0 0 0 0 0 0 0 0 0 0 0 0 0 0 0 0 0 0 0; 0 0 0 0 0 0 0 0 0 0 0 0 0 0 0 0 0 0 0 0; 0 0 0 0 0 0 0 0 0 0 0 0 0 0 0 0 0 0 0 0]
Q2 = [0.0 0.0 0.0 29.0 0.0 0.0 47.0 11.0 0.0 0.0 42.0 13.0 0.0 0.0 49.0 0.0 0.0 0.0 0.0 0.0; 0.0 0.0 1.0 0.0 0.0 0.0 0.0 0.0 0.0 0.0 3.0 6.0 40.0 10.0 7.0 0.0 42.0 43.0 45.0 0.0; 0.0 0.0 0.0 0.0 0.0 8.0 0.0 0.0 0.0 15.0 0.0 0.0 0.0 0.0 12.0 0.0 19.0 0.0 49.0 1.0; 0.0 0.0 0.0 0.0 0.0 33.0 0.0 42.0 5.0 0.0 2.0 0.0 0.0 0.0 0.0 0.0 48.0 0.0 0.0 5.0; 0.0 0.0 0.0 0.0 0.0 0.0 1.0 0.0 34.0 0.0 9.0 0.0 1.0 10.0 0.0 4.0 0.0 42.0 0.0 41.0; 0.0 0.0 0.0 0.0 0.0 0.0 0.0 50.0 41.0 0.0 4.0 45.0 0.0 0.0 0.0 12.0 0.0 0.0 0.0 0.0; 0.0 0.0 0.0 0.0 0.0 0.0 0.0 6.0 0.0 35.0 0.0 0.0 0.0 0.0 0.0 0.0 6.0 0.0 0.0 42.0; 0.0 0.0 0.0 0.0 0.0 0.0 0.0 0.0 0.0 5.0 0.0 6.0 42.0 48.0 0.0 0.0 0.0 0.0 0.0 44.0; 0.0 0.0 0.0 0.0 0.0 0.0 0.0 0.0 0.0 42.0 42.0 37.0 29.0 0.0 0.0 2.0 0.0 0.0 50.0 3.0; 0.0 0.0 0.0 0.0 0.0 0.0 0.0 0.0 0.0 0.0 3.0 8.0 0.0 0.0 0.0 0.0 39.0 0.0 0.0 1.0; 0.0 0.0 0.0 0.0 0.0 0.0 0.0 0.0 0.0 0.0 0.0 7.0 11.0 0.0 0.0 50.0 0.0 0.0 0.0 0.0; 0.0 0.0 0.0 0.0 0.0 0.0 0.0 0.0 0.0 0.0 0.0 0.0 48.0 0.0 0.0 0.0 0.0 44.0 9.0 9.0; 0.0 0.0 0.0 0.0 0.0 0.0 0.0 0.0 0.0 0.0 0.0 0.0 0.0 49.0 43.0 4.0 7.0 0.0 0.0 0.0; 0.0 0.0 0.0 0.0 0.0 0.0 0.0 0.0 0.0 0.0 0.0 0.0 0.0 0.0 8.0 0.0 0.0 0.0 46.0 1.0; 0.0 0.0 0.0 0.0 0.0 0.0 0.0 0.0 0.0 0.0 0.0 0.0 0.0 0.0 0.0 0.0 0.0 37.0 45.0 0.0; 0.0 0.0 0.0 0.0 0.0 0.0 0.0 0.0 0.0 0.0 0.0 0.0 0.0 0.0 0.0 0.0 0.0 5.0 0.0 0.0; 0.0 0.0 0.0 0.0 0.0 0.0 0.0 0.0 0.0 0.0 0.0 0.0 0.0 0.0 0.0 0.0 0.0 50.0 48.0 0.0; 0.0 0.0 0.0 0.0 0.0 0.0 0.0 0.0 0.0 0.0 0.0 0.0 0.0 0.0 0.0 0.0 0.0 0.0 0.0 0.0; 0.0 0.0 0.0 0.0 0.0 0.0 0.0 0.0 0.0 0.0 0.0 0.0 0.0 0.0 0.0 0.0 0.0 0.0 0.0 0.0; 0.0 0.0 0.0 0.0 0.0 0.0 0.0 0.0 0.0 0.0 0.0 0.0 0.0 0.0 0.0 0.0 0.0 0.0 0.0 0.0]
Q3 = [0 73 73 15 73 73 2 5 73 73 18 8 73 73 14 73 73 73 20 73; 0 0 24 73 73 73 73 73 73 73 71 48 5 22 67 73 9 5 4 73; 0 0 0 73 73 8 73 73 73 7 73 73 73 73 24 73 16 73 16 1; 0 0 0 0 73 11 73 3 26 73 11 73 73 73 73 73 14 73 73 32; 0 0 0 0 0 73 16 73 23 73 7 73 27 21 13 20 73 15 73 18; 0 0 0 0 0 0 73 3 11 73 19 14 73 73 73 23 73 73 19 73; 0 0 0 0 0 0 0 21 73 3 73 73 73 73 73 73 3 73 73 4; 0 0 0 0 0 0 0 0 73 15 73 2 14 18 73 73 73 73 73 20; 0 0 0 0 0 0 0 0 0 12 19 7 18 73 73 11 73 73 0 18; 0 0 0 0 0 0 0 0 0 0 23 14 73 66 73 73 1 73 73 19; 0 0 0 0 0 0 0 0 0 0 0 65 32 73 73 14 73 73 73 73; 0 0 0 0 0 0 0 0 0 0 0 0 5 13 73 73 73 3 9 11; 0 0 0 0 0 0 0 0 0 0 0 0 0 15 0 10 58 73 73 73; 0 0 0 0 0 0 0 0 0 0 0 0 0 0 9 10 73 73 6 5; 0 0 0 0 0 0 0 0 0 0 0 0 0 0 0 73 73 6 23 73; 0 0 0 0 0 0 0 0 0 0 0 0 0 0 0 0 73 25 73 73; 0 0 0 0 0 0 0 0 0 0 0 0 0 0 0 0 0 0 2 73; 0 0 0 0 0 0 0 0 0 0 0 0 0 0 0 0 0 0 73 73; 0 0 0 0 0 0 0 0 0 0 0 0 0 0 0 0 0 0 0 73; 0 0 0 0 0 0 0 0 0 0 0 0 0 0 0 0 0 0 0 0]
